
  32    4
  10   10   10   10

   0   0   0   0   0   4 2 13 17 31 
   6   0   1   1   1   1 3 
   7   0   3   4   4   3 30 15 4 
   9   1   0   6   3   2 29 5 
   3   3   3   0   8   2 20 6 
   3   0   1   2   5   3 28 19 7 
   7   3   4   0   1   2 26 8 
   4   0   5   2   6   2 25 9 
   6   5   0   2   3   2 24 10 
   5   5   5   5   0   1 11 
   6   4   4   5   0   1 12 
   6   0   4   2   3   2 23 14 
   4   4   5   6   0   2 21 18 
   6   4   0   2   4   1 16 
   3   3   5   0   3   1 16 
   2   5   2   0   8   1 18 
   9   8   4   0   2   1 18 
   8   8   5   0   3   1 22 
   2   4   0   3   3   1 23 
   7   2   0   2   6   1 27 
   7   5   0   2   2   1 22 
   6   0   4   6   4   1 32
   1   3   0   6   4   1 32
   9   3   0   5   8   1 32
   4   4   0   5   5   1 32
   7   3   7   0   3   1 32
   3   3   0   4   2   1 32
   4   2   0   7   3   1 32
   1   4   0   6   6   1 32
   5   6   6   6   0   1 32
   7   0   4   3   4   1 32
   0   0   0   0   0   0 
